c CNF file corresponding to a (partial) station packing problem.
p cnf 5871 229
1 2 3 4 5 6 7 8 9 10 11 12 13 14 0
-1 -2 0
-1 -3 0
-1 -4 0
-1 -5 0
-1 -6 0
-1 -7 0
-1 -8 0
-1 -9 0
-1 -10 0
-1 -11 0
-1 -12 0
-1 -13 0
-1 -14 0
-2 -3 0
-2 -4 0
-2 -5 0
-2 -6 0
-2 -7 0
-2 -8 0
-2 -9 0
-2 -10 0
-2 -11 0
-2 -12 0
-2 -13 0
-2 -14 0
-3 -4 0
-3 -5 0
-3 -6 0
-3 -7 0
-3 -8 0
-3 -9 0
-3 -10 0
-3 -11 0
-3 -12 0
-3 -13 0
-3 -14 0
-4 -5 0
-4 -6 0
-4 -7 0
-4 -8 0
-4 -9 0
-4 -10 0
-4 -11 0
-4 -12 0
-4 -13 0
-4 -14 0
-5 -6 0
-5 -7 0
-5 -8 0
-5 -9 0
-5 -10 0
-5 -11 0
-5 -12 0
-5 -13 0
-5 -14 0
-6 -7 0
-6 -8 0
-6 -9 0
-6 -10 0
-6 -11 0
-6 -12 0
-6 -13 0
-6 -14 0
-7 -8 0
-7 -9 0
-7 -10 0
-7 -11 0
-7 -12 0
-7 -13 0
-7 -14 0
-8 -9 0
-8 -10 0
-8 -11 0
-8 -12 0
-8 -13 0
-8 -14 0
-9 -10 0
-9 -11 0
-9 -12 0
-9 -13 0
-9 -14 0
-10 -11 0
-10 -12 0
-10 -13 0
-10 -14 0
-11 -12 0
-11 -13 0
-11 -14 0
-12 -13 0
-12 -14 0
-13 -14 0
5855 5856 5857 5858 5859 5860 5861 5862 5863 5864 5865 5866 5867 5868 5869 5870 5871 0
-5855 -5856 0
-5855 -5857 0
-5855 -5858 0
-5855 -5859 0
-5855 -5860 0
-5855 -5861 0
-5855 -5862 0
-5855 -5863 0
-5855 -5864 0
-5855 -5865 0
-5855 -5866 0
-5855 -5867 0
-5855 -5868 0
-5855 -5869 0
-5855 -5870 0
-5855 -5871 0
-5856 -5857 0
-5856 -5858 0
-5856 -5859 0
-5856 -5860 0
-5856 -5861 0
-5856 -5862 0
-5856 -5863 0
-5856 -5864 0
-5856 -5865 0
-5856 -5866 0
-5856 -5867 0
-5856 -5868 0
-5856 -5869 0
-5856 -5870 0
-5856 -5871 0
-5857 -5858 0
-5857 -5859 0
-5857 -5860 0
-5857 -5861 0
-5857 -5862 0
-5857 -5863 0
-5857 -5864 0
-5857 -5865 0
-5857 -5866 0
-5857 -5867 0
-5857 -5868 0
-5857 -5869 0
-5857 -5870 0
-5857 -5871 0
-5858 -5859 0
-5858 -5860 0
-5858 -5861 0
-5858 -5862 0
-5858 -5863 0
-5858 -5864 0
-5858 -5865 0
-5858 -5866 0
-5858 -5867 0
-5858 -5868 0
-5858 -5869 0
-5858 -5870 0
-5858 -5871 0
-5859 -5860 0
-5859 -5861 0
-5859 -5862 0
-5859 -5863 0
-5859 -5864 0
-5859 -5865 0
-5859 -5866 0
-5859 -5867 0
-5859 -5868 0
-5859 -5869 0
-5859 -5870 0
-5859 -5871 0
-5860 -5861 0
-5860 -5862 0
-5860 -5863 0
-5860 -5864 0
-5860 -5865 0
-5860 -5866 0
-5860 -5867 0
-5860 -5868 0
-5860 -5869 0
-5860 -5870 0
-5860 -5871 0
-5861 -5862 0
-5861 -5863 0
-5861 -5864 0
-5861 -5865 0
-5861 -5866 0
-5861 -5867 0
-5861 -5868 0
-5861 -5869 0
-5861 -5870 0
-5861 -5871 0
-5862 -5863 0
-5862 -5864 0
-5862 -5865 0
-5862 -5866 0
-5862 -5867 0
-5862 -5868 0
-5862 -5869 0
-5862 -5870 0
-5862 -5871 0
-5863 -5864 0
-5863 -5865 0
-5863 -5866 0
-5863 -5867 0
-5863 -5868 0
-5863 -5869 0
-5863 -5870 0
-5863 -5871 0
-5864 -5865 0
-5864 -5866 0
-5864 -5867 0
-5864 -5868 0
-5864 -5869 0
-5864 -5870 0
-5864 -5871 0
-5865 -5866 0
-5865 -5867 0
-5865 -5868 0
-5865 -5869 0
-5865 -5870 0
-5865 -5871 0
-5866 -5867 0
-5866 -5868 0
-5866 -5869 0
-5866 -5870 0
-5866 -5871 0
-5867 -5868 0
-5867 -5869 0
-5867 -5870 0
-5867 -5871 0
-5868 -5869 0
-5868 -5870 0
-5868 -5871 0
-5869 -5870 0
-5869 -5871 0
-5870 -5871 0
